     Program PWSCF v.5.1rc2 starts on 10Apr2017 at 23:42:15

     Current dimensions of program PWSCF are:
     Max number of different atomic species (ntypx) = 10
     Max number of k-points (npk) =  40000
     Max angular momentum in pseudopotentials (lmaxx) =  3

     IMPORTANT: XC functional enforced from input :
     Exchange-correlation      = BEEF-VDW ( 1  4 27 13 2)
     Any further DFT definition will be discarded
     Please, verify this is what you really want

     Subspace diagonalization in iterative solution of the eigenvalue problem:
     a serial algorithm will be used

     Generating pointlists ...
     new r_m :   0.4125 (alat units)  0.7795 (a.u.) for type    1

     bravais-lattice index     =            0
     lattice parameter (alat)  =       1.8897  a.u.
     unit-cell volume          =     785.8726 (a.u.)^3
     number of atoms/cell      =            3
     number of atomic types    =            1
     number of electrons       =        48.00
     number of Kohn-Sham states=           34
     kinetic-energy cutoff     =      29.3995  Ry
     charge density cutoff     =     293.9946  Ry
     convergence threshold     =      7.3E-08
     mixing beta               =       0.7000
     number of iterations used =            8  plain     mixing
     Exchange-correlation      = BEEF-VDW ( 1  4 27 13 2)
     nstep                     =           50

     celldm(1)=   1.889726  celldm(2)=   0.000000  celldm(3)=   0.000000
     celldm(4)=   0.000000  celldm(5)=   0.000000  celldm(6)=   0.000000

     crystal axes: (cart. coord. in units of alat)
               a(1) = (   2.842569   0.000000   0.000000 )
               a(2) = (   1.421285   2.461737   0.000000 )
               a(3) = (   0.000000   0.000000  16.641896 )

     reciprocal axes: (cart. coord. in units 2 pi/alat)
               b(1) = (  0.351794 -0.203109  0.000000 )
               b(2) = (  0.000000  0.406217  0.000000 )
               b(3) = (  0.000000  0.000000  0.060089 )

     PseudoPot. # 1 for Pt read from file:
     /gpfs/pace1/project/chbe-medford/medford-share/data/pseudos/SSSP_eff_PBE/Pt.UPF
     MD5 check sum: f09d6de1a584b5a045c4fc126da2d0c4
     Pseudo is Ultrasoft + core correction, Zval = 16.0
     Generated by new atomic code, or converted to UPF format
     Using radial grid of  985 points,  6 beta functions with:
                l(1) =   0
                l(2) =   0
                l(3) =   1
                l(4) =   1
                l(5) =   2
                l(6) =   2
     Q(r) pseudized with  8 coefficients,  rinner =    1.300   1.300   1.300
                                                       1.300   1.300

     vdW kernel table read from file vdW_kernel_table
     MD5 check sum: 88c60d17101ec99b63477f765c8de84d

     atomic species   valence    mass     pseudopotential
        Pt1           16.00   195.08000     Pt( 1.00)

     Starting magnetic structure
     atomic species   magnetization
        Pt1          0.000

     12 Sym. Ops., with inversion, found ( 6 have fractional translation)

   Cartesian axes

     site n.     atom                  positions (alat units)
         1           Pt1 tau(   1) = (   1.4212846   0.8205791   6.0000000  )
         2           Pt1 tau(   2) = (   2.8425693   1.6411581   8.3209481  )
         3           Pt1 tau(   3) = (   0.0000000   0.0000000  10.6418962  )

     number of k points=    20  Fermi-Dirac smearing, width (Ry)=  0.0073
                       cart. coord. in units 2pi/alat
        k(    1) = (   0.0000000   0.0000000   0.0000000), wk =   0.0156250
        k(    2) = (   0.0000000   0.0507772   0.0000000), wk =   0.0937500
        k(    3) = (   0.0000000   0.1015543   0.0000000), wk =   0.0937500
        k(    4) = (   0.0000000   0.1523315   0.0000000), wk =   0.0937500
        k(    5) = (   0.0000000  -0.2031086   0.0000000), wk =   0.0468750
        k(    6) = (   0.0439743   0.0761657   0.0000000), wk =   0.0937500
        k(    7) = (   0.0439743   0.1269429   0.0000000), wk =   0.1875000
        k(    8) = (   0.0439743  -0.2284972   0.0000000), wk =   0.1875000
        k(    9) = (   0.0879486  -0.2538858   0.0000000), wk =   0.0937500
        k(   10) = (   0.0879486  -0.2031086   0.0000000), wk =   0.0937500
        k(   11) = (   0.0000000   0.0000000   0.0000000), wk =   0.0156250
        k(   12) = (   0.0000000   0.0507772   0.0000000), wk =   0.0937500
        k(   13) = (   0.0000000   0.1015543   0.0000000), wk =   0.0937500
        k(   14) = (   0.0000000   0.1523315   0.0000000), wk =   0.0937500
        k(   15) = (   0.0000000  -0.2031086   0.0000000), wk =   0.0468750
        k(   16) = (   0.0439743   0.0761657   0.0000000), wk =   0.0937500
        k(   17) = (   0.0439743   0.1269429   0.0000000), wk =   0.1875000
        k(   18) = (   0.0439743  -0.2284972   0.0000000), wk =   0.1875000
        k(   19) = (   0.0879486  -0.2538858   0.0000000), wk =   0.0937500
        k(   20) = (   0.0879486  -0.2031086   0.0000000), wk =   0.0937500

     Largest allocated arrays     est. size (Mb)     dimensions
     Largest temporary arrays     est. size (Mb)     dimensions

     Initial potential from superposition of free atoms
     Check: negative starting charge=(component1):   -0.282958
     Check: negative starting charge=(component2):   -0.282958

     starting charge   46.49997, renormalised to   48.00000

     negative rho (up, down):  2.921E-01 2.921E-01

     *
     * You are using vdW-DF for exchange-correlation in this calculation.
     * Please cite the following three references that made this development
     * possible:
     *
     *   M. Dion, H. Rydberg, E. Schroder, D. C. Langreth, and
     *   B. I. Lundqvist, Phys. Rev. Lett. 92, 246401 (2004).
     *
     *   T. Thonhauser, V. R. Cooper, S. Li, A. Puzder, P. Hyldgaard, and
     *   D. C. Langreth, Phys. Rev. B 76, 125112 (2007).
     *
     *   G. Roman-Perez and J. M. Soler, Phys. Rev. Lett. 103, 096102 (2009).
     *
     *
     * If you are using vdW-DF2, please also cite:
     *
     *   K. Lee, E. D. Murray, L. Kong, B. I. Lundqvist, and
     *   D. C. Langreth, Phys. Rev. B 82, 081101(R) (2010).
     *
     *
     * If you are calculating the stress with vdW-DF, please also cite:
     *
     *   R. Sabatini, E. Kucukbenli, B. Kolb, T. Thonhauser, and
     *   S. de Gironcoli, J. Phys.: Condens. Matter 24, 424209 (2012).
     *

     Carrying out vdW-DF run using the following parameters:

     Nqs =      20    Nr_points =    1024   r_max =   100.000
     q_mesh =
               0.00001000     0.04494208     0.09755937     0.15916263
               0.23128650     0.31572767     0.41458969     0.53033537
               0.66584808     0.82450364     1.01025438     1.22772762
               1.48234092     1.78043706     2.12944203     2.53805004
               3.01644009     3.57652955     4.23227104     5.00000000

     Gradients computed in reciprocal space

     Starting wfc are   36 randomized atomic wfcs

     Self-consistent Calculation

     iteration #  1     ecut=    29.40 Ry     beta=0.70
     Davidson diagonalization with overlap
     ethr =  1.00E-02,  avg # of iterations =  5.6

[...]

     Magnetic moment per site:
     atom:    1    charge:    1.9971    magn:   -0.0001    constr:    0.0000
     atom:    2    charge:    1.9688    magn:   -0.0001    constr:    0.0000
     atom:    3    charge:    1.9971    magn:   -0.0001    constr:    0.0000

     total energy              =    -634.40340215 Ry
     Harris-Foulkes estimate   =    -637.84181007 Ry
     estimated scf accuracy    <       4.43178296 Ry

     total magnetization       =    -0.00 Bohr mag/cell
     absolute magnetization    =     0.01 Bohr mag/cell

[...]

     End of self-consistent calculation

 ------ SPIN UP ------------

          k = 0.0000 0.0000 0.0000 (  2131 PWs)   bands (ev):

   -47.7220 -47.5494 -47.5494 -47.2819 -47.2819 -47.2804 -47.2804 -47.1317
   -47.1048  -3.3164  -1.6798  -1.1949   1.7679   1.8665   1.8665   2.1157
     2.1157   2.1597   2.3082   2.3082   3.6699   3.6699   4.2508   4.2508
     4.3947   4.8919   4.8919   6.0158   9.7738  10.6778  11.9652  15.0007
    15.1422  19.2886

[...]

 ------ SPIN DOWN ----------

[...]

     the Fermi energy is     4.9482 ev

!    total energy              =    -637.00343359 Ry
     Harris-Foulkes estimate   =    -637.00343360 Ry
     estimated scf accuracy    <       0.00000002 Ry

     The total energy is the sum of the following terms:

     one-electron contribution =   -2245.62413423 Ry
     hartree contribution      =    1137.90010935 Ry
     xc contribution           =    -175.73007688 Ry
     ewald contribution        =     646.46560382 Ry
     smearing contrib. (-TS)   =      -0.01493565 Ry

[...]

     convergence has been achieved in  12 iterations

 BEEFens 2000 ensemble energies
             -0.115657018008557E+02
             -0.922824486976957E+00
             -0.329908318987383E+01
              0.882167859452175E+01
             -0.411900598251989E+01
             -0.419359875061541E+01
             -0.708167344409337E+01
             -0.176980161548039E+02
             -0.957555759978345E+01
             -0.100262989755374E+02
             -0.736496291232477E+01
             -0.657965124558215E-01
              0.583404231818388E+00
              0.152233605587691E+01
              0.702866245051183E+00
              0.927219044848866E+01
             -0.471272095782694E+01
             -0.512250709456316E+01
              0.338604493364920E+01
             -0.220846380148922E+02
              0.111422574082271E+02
             -0.546216058931194E+01
             -0.105345280993233E+01
             -0.230521430890803E+01
             -0.197925515826037E+01
             -0.190506957879043E+01
              0.175211195869476E+02
             -0.242546110903460E+01
             -0.232520183290302E+01
             -0.102454900374559E+02
              0.168571070482528E+02
             -0.420959421684828E+01
             -0.795737059522710E+01
              0.555145682724634E+01
             -0.582027567755702E+00
              0.309864499122314E+01
             -0.868335654623614E+00
              0.200911275540597E+01
              0.451644102648367E+01
             -0.212826698558660E+02
              0.106390850913758E+02
              0.233707830947963E+01
              0.239295405583576E+00
             -0.757300850629727E+01
              0.210697393897901E+01
             -0.242040746136398E+01
              0.840617722221731E+01
              0.744436211900128E+01
             -0.620115072142934E+01
             -0.585742475984691E+01
             -0.590861281232742E+01
             -0.631382462263521E+01
              0.133105175790956E+01
             -0.104271828522645E+02
              0.224970390957438E+01
              0.118572885591437E+02
              0.125185561145259E+02
              0.681153028520962E+01
              0.368490849284185E+01
              0.478788761067187E+01
[...]
             -0.138625443160104E+02
             -0.957314530659545E+00
              0.222446248591456E+00
             -0.185791842910800E+01
              0.480851239669576E+00
             -0.131475383923124E+02
             -0.482939871030992E+01
              0.942497741121500E+00
              0.850413771142605E+00
              0.918525999081096E+01
             -0.750765580248564E+01
              0.134458913915092E+02
             -0.822261377030237E+01
              0.365578602359399E+01
              0.727646667348156E+01

 BEEF-vdW xc energy contributions
           1 :   -156.275636741792
           2 :    145.394777330948
           3 :   -125.898871750311
           4 :    101.529858182972
           5 :   -76.3664685451001
           6 :    53.7647591422457
           7 :   -35.6855501342597
           8 :    22.5484109718922
           9 :   -13.5776725990917
          10 :    7.43631371075122
          11 :   -2.87086940034203
          12 :  -0.872502852689792
          13 :    3.96222390199355
          14 :   -6.17934176132638
          15 :    7.24483588063396
          16 :   -7.09778330661234
          17 :    6.00079965460861
          18 :   -4.45819922344521
          19 :    3.01936287029048
          20 :   -2.07844834460431
          21 :    1.76048330306369
          22 :   -1.93191603184758
          23 :    2.31195023278988
          24 :   -2.62162522459803
          25 :    2.69895550367747
          26 :   -2.53701752375201
          27 :    2.24374585992246
          28 :   -1.96007320711141
          29 :    1.78336186135397
          30 :   -1.73084388760731
          31 :   -12.7970371016025
          32 :   -9.44661118416695

     Forces acting on atoms (Ry/au):

     negative rho (up, down):  2.731E-01 2.731E-01
     atom    1 type  1   force =     0.00000000   -0.00000000    0.00536784
     atom    2 type  1   force =     0.00000000    0.00000000    0.00000000
     atom    3 type  1   force =     0.00000000    0.00000000   -0.00536784

     Total force =     0.007591     Total SCF correction =     0.000585
 !ASE

     Writing output data file calc.save

     General routines

     Parallel routines

   This run was terminated on:  23:45:55  10Apr2017

   JOB DONE.
  python dir          : /gpfs/pace1/project/chbe-medford/medford-share/INSTALL/lib/python2.7/site-packages/espresso
  espresso dir        : /nv/hp22/amedford6/medford-shared/builds/espresso/5.1.r11289-pybeef/intel-16.0+mvapich2-2.2+mkl-11.3/espresso-5.1.r11289-pybeef/bin
  pseudo dir          : /gpfs/pace1/project/chbe-medford/medford-share/data/pseudos/SSSP_eff_PBE
  ase-espresso py git : c91b4c2-git

     Program PWSCF v.5.1rc2 starts on 11Apr2017 at 10:42: 1

     Current dimensions of program PWSCF are:
     Max number of different atomic species (ntypx) = 10
     Max number of k-points (npk) =  40000
     Max angular momentum in pseudopotentials (lmaxx) =  3

     IMPORTANT: XC functional enforced from input :
     Exchange-correlation      = BEEF-VDW ( 1  4 27 13 2)
     Any further DFT definition will be discarded
     Please, verify this is what you really want

     Subspace diagonalization in iterative solution of the eigenvalue problem:
     a serial algorithm will be used

     Generating pointlists ...
     new r_m :   0.4125 (alat units)  0.7795 (a.u.) for type    1

     bravais-lattice index     =            0
     lattice parameter (alat)  =       1.8897  a.u.
     unit-cell volume          =     785.8726 (a.u.)^3
     number of atoms/cell      =            3
     number of atomic types    =            1
     number of electrons       =        48.00
     number of Kohn-Sham states=           34
     kinetic-energy cutoff     =      29.3995  Ry
     charge density cutoff     =     293.9946  Ry
     convergence threshold     =      7.3E-08
     mixing beta               =       0.7000
     number of iterations used =            8  plain     mixing
     Exchange-correlation      = BEEF-VDW ( 1  4 27 13 2)
     nstep                     =           50

     celldm(1)=   1.889726  celldm(2)=   0.000000  celldm(3)=   0.000000
     celldm(4)=   0.000000  celldm(5)=   0.000000  celldm(6)=   0.000000

     crystal axes: (cart. coord. in units of alat)
               a(1) = (   2.842569   0.000000   0.000000 )
               a(2) = (   1.421285   2.461737   0.000000 )
               a(3) = (   0.000000   0.000000  16.641896 )

     reciprocal axes: (cart. coord. in units 2 pi/alat)
               b(1) = (  0.351794 -0.203109  0.000000 )
               b(2) = (  0.000000  0.406217  0.000000 )
               b(3) = (  0.000000  0.000000  0.060089 )

     PseudoPot. # 1 for Pt read from file:
     /gpfs/pace1/project/chbe-medford/medford-share/data/pseudos/SSSP_eff_PBE/Pt.UPF
     MD5 check sum: f09d6de1a584b5a045c4fc126da2d0c4
     Pseudo is Ultrasoft + core correction, Zval = 16.0
     Generated by new atomic code, or converted to UPF format
     Using radial grid of  985 points,  6 beta functions with:
                l(1) =   0
                l(2) =   0
                l(3) =   1
                l(4) =   1
                l(5) =   2
                l(6) =   2
     Q(r) pseudized with  8 coefficients,  rinner =    1.300   1.300   1.300
                                                       1.300   1.300

     vdW kernel table read from file vdW_kernel_table
     MD5 check sum: 88c60d17101ec99b63477f765c8de84d

     atomic species   valence    mass     pseudopotential
        Pt1           16.00   195.08000     Pt( 1.00)

     Starting magnetic structure
     atomic species   magnetization
        Pt1          0.000

     12 Sym. Ops., with inversion, found ( 6 have fractional translation)

   Cartesian axes

     site n.     atom                  positions (alat units)
         1           Pt1 tau(   1) = (   1.4212846   0.8205791   6.0000000  )
         2           Pt1 tau(   2) = (   2.8425693   1.6411581   8.3209481  )
         3           Pt1 tau(   3) = (   0.0000000   0.0000000  10.6418962  )

     number of k points=    20  Fermi-Dirac smearing, width (Ry)=  0.0073
                       cart. coord. in units 2pi/alat
        k(    1) = (   0.0000000   0.0000000   0.0000000), wk =   0.0156250
        k(    2) = (   0.0000000   0.0507772   0.0000000), wk =   0.0937500
        k(    3) = (   0.0000000   0.1015543   0.0000000), wk =   0.0937500
        k(    4) = (   0.0000000   0.1523315   0.0000000), wk =   0.0937500
        k(    5) = (   0.0000000  -0.2031086   0.0000000), wk =   0.0468750
        k(    6) = (   0.0439743   0.0761657   0.0000000), wk =   0.0937500
        k(    7) = (   0.0439743   0.1269429   0.0000000), wk =   0.1875000
        k(    8) = (   0.0439743  -0.2284972   0.0000000), wk =   0.1875000
        k(    9) = (   0.0879486  -0.2538858   0.0000000), wk =   0.0937500
        k(   10) = (   0.0879486  -0.2031086   0.0000000), wk =   0.0937500
        k(   11) = (   0.0000000   0.0000000   0.0000000), wk =   0.0156250
        k(   12) = (   0.0000000   0.0507772   0.0000000), wk =   0.0937500
        k(   13) = (   0.0000000   0.1015543   0.0000000), wk =   0.0937500
        k(   14) = (   0.0000000   0.1523315   0.0000000), wk =   0.0937500
        k(   15) = (   0.0000000  -0.2031086   0.0000000), wk =   0.0468750
        k(   16) = (   0.0439743   0.0761657   0.0000000), wk =   0.0937500
        k(   17) = (   0.0439743   0.1269429   0.0000000), wk =   0.1875000
        k(   18) = (   0.0439743  -0.2284972   0.0000000), wk =   0.1875000
        k(   19) = (   0.0879486  -0.2538858   0.0000000), wk =   0.0937500
        k(   20) = (   0.0879486  -0.2031086   0.0000000), wk =   0.0937500

     Largest allocated arrays     est. size (Mb)     dimensions
     Largest temporary arrays     est. size (Mb)     dimensions

     Initial potential from superposition of free atoms
     Check: negative starting charge=(component1):   -0.282958
     Check: negative starting charge=(component2):   -0.282958

     starting charge   46.49997, renormalised to   48.00000

[...]

     *
     * You are using vdW-DF for exchange-correlation in this calculation.
     * Please cite the following three references that made this development
     * possible:
     *
     *   M. Dion, H. Rydberg, E. Schroder, D. C. Langreth, and
     *   B. I. Lundqvist, Phys. Rev. Lett. 92, 246401 (2004).
     *
     *   T. Thonhauser, V. R. Cooper, S. Li, A. Puzder, P. Hyldgaard, and
     *   D. C. Langreth, Phys. Rev. B 76, 125112 (2007).
     *
     *   G. Roman-Perez and J. M. Soler, Phys. Rev. Lett. 103, 096102 (2009).
     *
     *
     * If you are using vdW-DF2, please also cite:
     *
     *   K. Lee, E. D. Murray, L. Kong, B. I. Lundqvist, and
     *   D. C. Langreth, Phys. Rev. B 82, 081101(R) (2010).
     *
     *
     * If you are calculating the stress with vdW-DF, please also cite:
     *
     *   R. Sabatini, E. Kucukbenli, B. Kolb, T. Thonhauser, and
     *   S. de Gironcoli, J. Phys.: Condens. Matter 24, 424209 (2012).
     *

     Carrying out vdW-DF run using the following parameters:

     Nqs =      20    Nr_points =    1024   r_max =   100.000
     q_mesh =
               0.00001000     0.04494208     0.09755937     0.15916263
               0.23128650     0.31572767     0.41458969     0.53033537
               0.66584808     0.82450364     1.01025438     1.22772762
               1.48234092     1.78043706     2.12944203     2.53805004
               3.01644009     3.57652955     4.23227104     5.00000000

     Gradients computed in reciprocal space

     Starting wfc are   36 randomized atomic wfcs

     Self-consistent Calculation

[...]

     total energy              =    -637.00343301 Ry
     Harris-Foulkes estimate   =    -637.00343416 Ry
     estimated scf accuracy    <       0.00001131 Ry

[...]

     iteration # 12     ecut=    29.40 Ry     beta=0.70
     Davidson diagonalization with overlap
     ethr =  1.28E-08,  avg # of iterations =  1.0

[...]

     negative rho (up, down):  2.731E-01 2.731E-01

     Magnetic moment per site:
     atom:    1    charge:    2.0859    magn:    0.0000    constr:    0.0000
     atom:    2    charge:    2.0840    magn:    0.0000    constr:    0.0000
     atom:    3    charge:    2.0859    magn:    0.0000    constr:    0.0000

     End of self-consistent calculation

 ------ SPIN UP ------------

[...]

 ------ SPIN DOWN ----------

[...]

          k = 0.0879-0.2031 0.0000 (  2090 PWs)   bands (ev):

   -47.7717 -47.7013 -47.6837 -47.4979 -47.4822 -47.4276 -47.4211 -47.0925
   -47.0900   0.1711   0.2657   0.6059   0.8357   1.3210   1.5882   2.0777
     2.3590   2.7036   2.8291   3.3086   3.8214   4.5538   4.5836   4.8985
     9.3545   9.4172  10.6105  10.6259  12.1612  12.4440  13.6778  14.7096
    16.1387  16.1486

     the Fermi energy is     4.9482 ev

!    total energy              =    -637.00343359 Ry
     Harris-Foulkes estimate   =    -637.00343360 Ry
     estimated scf accuracy    <       0.00000002 Ry

     The total energy is the sum of the following terms:

     one-electron contribution =   -2245.62397376 Ry
     hartree contribution      =    1137.89994657 Ry
     xc contribution           =    -175.73007457 Ry
     ewald contribution        =     646.46560382 Ry
     smearing contrib. (-TS)   =      -0.01493564 Ry

     total magnetization       =     0.00 Bohr mag/cell
     absolute magnetization    =     0.00 Bohr mag/cell

     convergence has been achieved in  12 iterations

 BEEFens 2000 ensemble energies
             -0.115657017348356E+02
             -0.922824512225162E+00
             -0.329908317616436E+01
              0.882167852545035E+01
             -0.411900595648829E+01
             -0.419359865747043E+01
             -0.708167333092733E+01
             -0.176980159937128E+02
             -0.957555735951424E+01
             -0.100262987495693E+02
             -0.736496287249555E+01
             -0.657965123203770E-01
              0.583404285938688E+00
              0.152233602254221E+01
              0.702866257616442E+00
              0.927219032253089E+01
             -0.471272082971367E+01
             -0.512250692841440E+01
              0.338604502573608E+01
             -0.220846377083676E+02
              0.111422572163579E+02
             -0.546216053584018E+01
             -0.105345284289730E+01
             -0.230521423968069E+01
             -0.197925507305388E+01
             -0.190506943362192E+01
              0.175211193452826E+02
             -0.242546124469059E+01
             -0.232520175122292E+01
             -0.102454899412392E+02
              0.168571067293070E+02
             -0.420959409050525E+01
             -0.795737050284066E+01
              0.555145666684515E+01
             -0.582027589345401E+00
              0.309864507636497E+01
             -0.868335565956464E+00
              0.200911270071509E+01
              0.451644118052680E+01
             -0.212826694775384E+02
              0.106390850058633E+02
              0.233707829535310E+01
              0.239295295216991E+00
             -0.757300837024155E+01
              0.210697396047888E+01
             -0.242040752426095E+01
              0.840617715063976E+01
              0.744436195480816E+01
             -0.620115055350522E+01
             -0.585742474372262E+01
             -0.590861288788426E+01
             -0.631382459538249E+01
              0.133105188760531E+01
             -0.104271826861042E+02
              0.224970392395701E+01
              0.118572884101488E+02
              0.125185560207696E+02
              0.681153020620898E+01
              0.368490835074441E+01
              0.478788761074725E+01
[...]
             -0.138625442129708E+02
             -0.957314404842862E+00
              0.222446220525466E+00
             -0.185791843406400E+01
              0.480851172910093E+00
             -0.131475381998182E+02
             -0.482939857684654E+01
              0.942497769498138E+00
              0.850413854313636E+00
              0.918525992129264E+01
             -0.750765580110397E+01
              0.134458910833752E+02
             -0.822261370466924E+01
              0.365578603821574E+01
              0.727646661957414E+01

 BEEF-vdW xc energy contributions
           1 :   -156.275634628543
           2 :    145.394775315520
           3 :   -125.898869737541
           4 :    101.529855992926
           5 :   -76.3664661588696
           6 :    53.7647568697194
           7 :   -35.6855485233158
           8 :    22.5484104208286
           9 :   -13.5776730631714
          10 :    7.43631479295067
          11 :   -2.87087062053320
          12 :  -0.872501878838591
          13 :    3.96222335726208
          14 :   -6.17934150998823
          15 :    7.24483549318265
          16 :   -7.09778237186657
          17 :    6.00079815890541
          18 :   -4.45819763746948
          19 :    3.01936188065105
          20 :   -2.07844843346925
          21 :    1.76048444508012
          22 :   -1.93191768456279
          23 :    2.31195163063683
          24 :   -2.62162579161918
          25 :    2.69895514463479
          26 :   -2.53701664657046
          27 :    2.24374513085240
          28 :   -1.96007316159040
          29 :    1.78336257830358
          30 :   -1.73084493545181
          31 :   -12.7970369971693
          32 :   -9.44661109860030

     Forces acting on atoms (Ry/au):

     negative rho (up, down):  2.731E-01 2.731E-01
     atom    1 type  1   force =     0.00000000    0.00000000    0.00536841
     atom    2 type  1   force =     0.00000000    0.00000000    0.00000000
     atom    3 type  1   force =     0.00000000    0.00000000   -0.00536841

     Total force =     0.007592     Total SCF correction =     0.000631
 !ASE

     Writing output data file calc.save

     General routines

     Parallel routines

   This run was terminated on:  10:43:49  11Apr2017

   JOB DONE.