     Program PWSCF v.5.1rc2 starts on 10Apr2017 at 23:42:15

     Current dimensions of program PWSCF are:
     Max number of different atomic species (ntypx) = 10
     Max number of k-points (npk) =  40000
     Max angular momentum in pseudopotentials (lmaxx) =  3

     IMPORTANT: XC functional enforced from input :
     Exchange-correlation      = BEEF-VDW ( 1  4 27 13 2)
     Any further DFT definition will be discarded
     Please, verify this is what you really want

     Subspace diagonalization in iterative solution of the eigenvalue problem:
     a serial algorithm will be used

     Generating pointlists ...
     new r_m :   0.4125 (alat units)  0.7795 (a.u.) for type    1

     bravais-lattice index     =            0
     lattice parameter (alat)  =       1.8897  a.u.
     unit-cell volume          =     785.8726 (a.u.)^3
     number of atoms/cell      =            3
     number of atomic types    =            1
     number of electrons       =        48.00
     number of Kohn-Sham states=           34
     kinetic-energy cutoff     =      29.3995  Ry
     charge density cutoff     =     293.9946  Ry
     convergence threshold     =      7.3E-08
     mixing beta               =       0.7000
     number of iterations used =            8  plain     mixing
     Exchange-correlation      = BEEF-VDW ( 1  4 27 13 2)
     nstep                     =           50

     celldm(1)=   1.889726  celldm(2)=   0.000000  celldm(3)=   0.000000
     celldm(4)=   0.000000  celldm(5)=   0.000000  celldm(6)=   0.000000

     crystal axes: (cart. coord. in units of alat)
               a(1) = (   2.842569   0.000000   0.000000 )
               a(2) = (   1.421285   2.461737   0.000000 )
               a(3) = (   0.000000   0.000000  16.641896 )

     reciprocal axes: (cart. coord. in units 2 pi/alat)
               b(1) = (  0.351794 -0.203109  0.000000 )
               b(2) = (  0.000000  0.406217  0.000000 )
               b(3) = (  0.000000  0.000000  0.060089 )

     PseudoPot. # 1 for Pt read from file:
     /gpfs/pace1/project/chbe-medford/medford-share/data/pseudos/SSSP_eff_PBE/Pt.UPF
     MD5 check sum: f09d6de1a584b5a045c4fc126da2d0c4
     Pseudo is Ultrasoft + core correction, Zval = 16.0
     Generated by new atomic code, or converted to UPF format
     Using radial grid of  985 points,  6 beta functions with:
                l(1) =   0
                l(2) =   0
                l(3) =   1
                l(4) =   1
                l(5) =   2
                l(6) =   2
     Q(r) pseudized with  8 coefficients,  rinner =    1.300   1.300   1.300
                                                       1.300   1.300

     vdW kernel table read from file vdW_kernel_table
     MD5 check sum: 88c60d17101ec99b63477f765c8de84d

     atomic species   valence    mass     pseudopotential
        Pt1           16.00   195.08000     Pt( 1.00)

     Starting magnetic structure
     atomic species   magnetization
        Pt1          0.000

     12 Sym. Ops., with inversion, found ( 6 have fractional translation)

   Cartesian axes

     site n.     atom                  positions (alat units)
         1           Pt1 tau(   1) = (   1.4212846   0.8205791   6.0000000  )
         2           Pt1 tau(   2) = (   2.8425693   1.6411581   8.3209481  )
         3           Pt1 tau(   3) = (   0.0000000   0.0000000  10.6418962  )

     number of k points=    20  Fermi-Dirac smearing, width (Ry)=  0.0073
                       cart. coord. in units 2pi/alat
        k(    1) = (   0.0000000   0.0000000   0.0000000), wk =   0.0156250
        k(    2) = (   0.0000000   0.0507772   0.0000000), wk =   0.0937500
        k(    3) = (   0.0000000   0.1015543   0.0000000), wk =   0.0937500
        k(    4) = (   0.0000000   0.1523315   0.0000000), wk =   0.0937500
        k(    5) = (   0.0000000  -0.2031086   0.0000000), wk =   0.0468750
        k(    6) = (   0.0439743   0.0761657   0.0000000), wk =   0.0937500
        k(    7) = (   0.0439743   0.1269429   0.0000000), wk =   0.1875000
        k(    8) = (   0.0439743  -0.2284972   0.0000000), wk =   0.1875000
        k(    9) = (   0.0879486  -0.2538858   0.0000000), wk =   0.0937500
        k(   10) = (   0.0879486  -0.2031086   0.0000000), wk =   0.0937500
        k(   11) = (   0.0000000   0.0000000   0.0000000), wk =   0.0156250
        k(   12) = (   0.0000000   0.0507772   0.0000000), wk =   0.0937500
        k(   13) = (   0.0000000   0.1015543   0.0000000), wk =   0.0937500
        k(   14) = (   0.0000000   0.1523315   0.0000000), wk =   0.0937500
        k(   15) = (   0.0000000  -0.2031086   0.0000000), wk =   0.0468750
        k(   16) = (   0.0439743   0.0761657   0.0000000), wk =   0.0937500
        k(   17) = (   0.0439743   0.1269429   0.0000000), wk =   0.1875000
        k(   18) = (   0.0439743  -0.2284972   0.0000000), wk =   0.1875000
        k(   19) = (   0.0879486  -0.2538858   0.0000000), wk =   0.0937500
        k(   20) = (   0.0879486  -0.2031086   0.0000000), wk =   0.0937500

     Largest allocated arrays     est. size (Mb)     dimensions
     Largest temporary arrays     est. size (Mb)     dimensions

     Initial potential from superposition of free atoms
     Check: negative starting charge=(component1):   -0.282958
     Check: negative starting charge=(component2):   -0.282958

     starting charge   46.49997, renormalised to   48.00000

     negative rho (up, down):  2.921E-01 2.921E-01

     *
     * You are using vdW-DF for exchange-correlation in this calculation.
     * Please cite the following three references that made this development
     * possible:
     *
     *   M. Dion, H. Rydberg, E. Schroder, D. C. Langreth, and
     *   B. I. Lundqvist, Phys. Rev. Lett. 92, 246401 (2004).
     *
     *   T. Thonhauser, V. R. Cooper, S. Li, A. Puzder, P. Hyldgaard, and
     *   D. C. Langreth, Phys. Rev. B 76, 125112 (2007).
     *
     *   G. Roman-Perez and J. M. Soler, Phys. Rev. Lett. 103, 096102 (2009).
     *
     *
     * If you are using vdW-DF2, please also cite:
     *
     *   K. Lee, E. D. Murray, L. Kong, B. I. Lundqvist, and
     *   D. C. Langreth, Phys. Rev. B 82, 081101(R) (2010).
     *
     *
     * If you are calculating the stress with vdW-DF, please also cite:
     *
     *   R. Sabatini, E. Kucukbenli, B. Kolb, T. Thonhauser, and
     *   S. de Gironcoli, J. Phys.: Condens. Matter 24, 424209 (2012).
     *

     Carrying out vdW-DF run using the following parameters:

     Nqs =      20    Nr_points =    1024   r_max =   100.000
     q_mesh =
               0.00001000     0.04494208     0.09755937     0.15916263
               0.23128650     0.31572767     0.41458969     0.53033537
               0.66584808     0.82450364     1.01025438     1.22772762
               1.48234092     1.78043706     2.12944203     2.53805004
               3.01644009     3.57652955     4.23227104     5.00000000

     Gradients computed in reciprocal space

     Starting wfc are   36 randomized atomic wfcs

     Self-consistent Calculation

     iteration #  1     ecut=    29.40 Ry     beta=0.70
     Davidson diagonalization with overlap
     ethr =  1.00E-02,  avg # of iterations =  5.6

[...]

     Magnetic moment per site:
     atom:    1    charge:    1.9971    magn:   -0.0001    constr:    0.0000
     atom:    2    charge:    1.9688    magn:   -0.0001    constr:    0.0000
     atom:    3    charge:    1.9971    magn:   -0.0001    constr:    0.0000

     total energy              =    -634.40340215 Ry
     Harris-Foulkes estimate   =    -637.84181007 Ry
     estimated scf accuracy    <       4.43178296 Ry

     total magnetization       =    -0.00 Bohr mag/cell
     absolute magnetization    =     0.01 Bohr mag/cell

[...]

     End of self-consistent calculation

 ------ SPIN UP ------------

          k = 0.0000 0.0000 0.0000 (  2131 PWs)   bands (ev):

   -47.7220 -47.5494 -47.5494 -47.2819 -47.2819 -47.2804 -47.2804 -47.1317
   -47.1048  -3.3164  -1.6798  -1.1949   1.7679   1.8665   1.8665   2.1157
     2.1157   2.1597   2.3082   2.3082   3.6699   3.6699   4.2508   4.2508
     4.3947   4.8919   4.8919   6.0158   9.7738  10.6778  11.9652  15.0007
    15.1422  19.2886

[...]

 ------ SPIN DOWN ----------

[...]

     the Fermi energy is     4.9482 ev

!    total energy              =    -637.00343359 Ry
     Harris-Foulkes estimate   =    -637.00343360 Ry
     estimated scf accuracy    <       0.00000002 Ry

     The total energy is the sum of the following terms:

     one-electron contribution =   -2245.62413423 Ry
     hartree contribution      =    1137.90010935 Ry
     xc contribution           =    -175.73007688 Ry
     ewald contribution        =     646.46560382 Ry
     smearing contrib. (-TS)   =      -0.01493565 Ry

[...]

     convergence has been achieved in  12 iterations

 BEEFens 2000 ensemble energies
             -0.115657018008557E+02
             -0.922824486976957E+00
             -0.329908318987383E+01
              0.882167859452175E+01
             -0.411900598251989E+01
             -0.419359875061541E+01
             -0.708167344409337E+01
             -0.176980161548039E+02
             -0.957555759978345E+01
             -0.100262989755374E+02
             -0.736496291232477E+01
             -0.657965124558215E-01
              0.583404231818388E+00
              0.152233605587691E+01
              0.702866245051183E+00
              0.927219044848866E+01
             -0.471272095782694E+01
             -0.512250709456316E+01
              0.338604493364920E+01
             -0.220846380148922E+02
              0.111422574082271E+02
             -0.546216058931194E+01
             -0.105345280993233E+01
             -0.230521430890803E+01
             -0.197925515826037E+01
             -0.190506957879043E+01
              0.175211195869476E+02
             -0.242546110903460E+01
             -0.232520183290302E+01
             -0.102454900374559E+02
              0.168571070482528E+02
             -0.420959421684828E+01
             -0.795737059522710E+01
              0.555145682724634E+01
             -0.582027567755702E+00
              0.309864499122314E+01
             -0.868335654623614E+00
              0.200911275540597E+01
              0.451644102648367E+01
             -0.212826698558660E+02
              0.106390850913758E+02
              0.233707830947963E+01
              0.239295405583576E+00
             -0.757300850629727E+01
              0.210697393897901E+01
             -0.242040746136398E+01
              0.840617722221731E+01
              0.744436211900128E+01
             -0.620115072142934E+01
             -0.585742475984691E+01
             -0.590861281232742E+01
             -0.631382462263521E+01
              0.133105175790956E+01
             -0.104271828522645E+02
              0.224970390957438E+01
              0.118572885591437E+02
              0.125185561145259E+02
              0.681153028520962E+01
              0.368490849284185E+01
              0.478788761067187E+01
[...]
             -0.138625443160104E+02
             -0.957314530659545E+00
              0.222446248591456E+00
             -0.185791842910800E+01
              0.480851239669576E+00
[...]
          11 :   -2.87086940034203
          12 :  -0.872502852689792
          13 :    3.96222390199355
          14 :   -6.17934176132638
          15 :    7.24483588063396
          16 :   -7.09778330661234
          17 :    6.00079965460861
          18 :   -4.45819922344521
          19 :    3.01936287029048
          20 :   -2.07844834460431
          21 :    1.76048330306369
          22 :   -1.93191603184758
          23 :    2.31195023278988
          24 :   -2.62162522459803
          25 :    2.69895550367747
          26 :   -2.53701752375201
          27 :    2.24374585992246
          28 :   -1.96007320711141
          29 :    1.78336186135397
          30 :   -1.73084388760731
          31 :   -12.7970371016025
          32 :   -9.44661118416695

     Forces acting on atoms (Ry/au):

     negative rho (up, down):  2.731E-01 2.731E-01
     atom    1 type  1   force =     0.00000000   -0.00000000    0.00536784
     atom    2 type  1   force =     0.00000000    0.00000000    0.00000000
     atom    3 type  1   force =     0.00000000    0.00000000   -0.00536784

     Total force =     0.007591     Total SCF correction =     0.000585
 !ASE

     Writing output data file calc.save

     General routines

     Parallel routines

   This run was terminated on:  23:45:55  10Apr2017

   JOB DONE.
  python dir          : /gpfs/pace1/project/chbe-medford/medford-share/INSTALL/lib/python2.7/site-packages/espresso
  espresso dir        : /nv/hp22/amedford6/medford-shared/builds/espresso/5.1.r11289-pybeef/intel-16.0+mvapich2-2.2+mkl-11.3/espresso-5.1.r11289-pybeef/bin
  pseudo dir          : /gpfs/pace1/project/chbe-medford/medford-share/data/pseudos/SSSP_eff_PBE
  ase-espresso py git : c91b4c2-git

     Program PWSCF v.5.1rc2 starts on 11Apr2017 at 10:42: 1

[...]

     Program PWSCF v.5.1rc2 starts on 11Apr2017 at 18: 9:45

[...]

     Total force =     0.000482     Total SCF correction =     0.001136
     SCF correction compared to forces is large: reduce conv_thr to get better values
 !ASE

[...]

   This run was terminated on:  18:49: 3  11Apr2017

[...]

   This run was terminated on:  19: 8:30  11Apr2017

[...]

     Program PWSCF v.5.1rc2 starts on 11Apr2017 at 19:10: 8

[...]

     iteration # 10     ecut=    58.80 Ry     beta=0.70
     Davidson diagonalization with overlap
  python dir          : /gpfs/pace1/project/chbe-medford/medford-share/INSTALL/lib/python2.7/site-packages/espresso
  espresso dir        : /nv/hp22/amedford6/medford-shared/builds/espresso/5.1.r11289-pybeef/intel-16.0+mvapich2-2.2+mkl-11.3/espresso-5.1.r11289-pybeef/bin
  pseudo dir          : /gpfs/pace1/project/chbe-medford/medford-share/data/pseudos/SSSP_eff_PBE
  ase-espresso py git : c91b4c2-git

[...]

     Total force =     0.010627     Total SCF correction =     0.002160
     SCF correction compared to forces is large: reduce conv_thr to get better values
 !ASE

[...]

   This run was terminated on:  19:50:27  11Apr2017

[...]

     Program PWSCF v.5.1rc2 starts on 11Apr2017 at 19:52:28

[...]

   This run was terminated on:  19:59: 1  11Apr2017

   JOB DONE.
  python dir          : /gpfs/pace1/project/chbe-medford/medford-share/INSTALL/lib/python2.7/site-packages/espresso
  espresso dir        : /nv/hp22/amedford6/medford-shared/builds/espresso/5.1.r11289-pybeef/intel-16.0+mvapich2-2.2+mkl-11.3/espresso-5.1.r11289-pybeef/bin
  pseudo dir          : /gpfs/pace1/project/chbe-medford/medford-share/data/pseudos/SSSP_eff_PBE
  ase-espresso py git : c91b4c2-git

     Program PWSCF v.5.1rc2 starts on 11Apr2017 at 20: 0:54

     Current dimensions of program PWSCF are:
     Max number of different atomic species (ntypx) = 10
     Max number of k-points (npk) =  40000
     Max angular momentum in pseudopotentials (lmaxx) =  3

     IMPORTANT: XC functional enforced from input :
     Exchange-correlation      = BEEF-VDW ( 1  4 27 13 2)
     Any further DFT definition will be discarded
     Please, verify this is what you really want

     Subspace diagonalization in iterative solution of the eigenvalue problem:
     a serial algorithm will be used

     Generating pointlists ...
     new r_m :   0.4125 (alat units)  0.7795 (a.u.) for type    1

     bravais-lattice index     =            0
     lattice parameter (alat)  =       1.8897  a.u.
     unit-cell volume          =     785.8726 (a.u.)^3
     number of atoms/cell      =            3
     number of atomic types    =            1
     number of electrons       =        48.00
     number of Kohn-Sham states=           34
     kinetic-energy cutoff     =      73.4986  Ry
     charge density cutoff     =     293.9946  Ry
     convergence threshold     =      7.3E-08
     mixing beta               =       0.7000
     number of iterations used =            8  plain     mixing
     Exchange-correlation      = BEEF-VDW ( 1  4 27 13 2)
     nstep                     =           50

     celldm(1)=   1.889726  celldm(2)=   0.000000  celldm(3)=   0.000000
     celldm(4)=   0.000000  celldm(5)=   0.000000  celldm(6)=   0.000000

     crystal axes: (cart. coord. in units of alat)
               a(1) = (   2.842569   0.000000   0.000000 )
               a(2) = (   1.421285   2.461737   0.000000 )
               a(3) = (   0.000000   0.000000  16.641896 )

     reciprocal axes: (cart. coord. in units 2 pi/alat)
               b(1) = (  0.351794 -0.203109  0.000000 )
               b(2) = (  0.000000  0.406217  0.000000 )
               b(3) = (  0.000000  0.000000  0.060089 )

     PseudoPot. # 1 for Pt read from file:
     /gpfs/pace1/project/chbe-medford/medford-share/data/pseudos/SSSP_eff_PBE/Pt.UPF
     MD5 check sum: f09d6de1a584b5a045c4fc126da2d0c4
     Pseudo is Ultrasoft + core correction, Zval = 16.0
     Generated by new atomic code, or converted to UPF format
     Using radial grid of  985 points,  6 beta functions with:
                l(1) =   0
                l(2) =   0
                l(3) =   1
                l(4) =   1
                l(5) =   2
                l(6) =   2
     Q(r) pseudized with  8 coefficients,  rinner =    1.300   1.300   1.300
                                                       1.300   1.300

     vdW kernel table read from file vdW_kernel_table
     MD5 check sum: 88c60d17101ec99b63477f765c8de84d

     atomic species   valence    mass     pseudopotential
        Pt1           16.00   195.08000     Pt( 1.00)

     Starting magnetic structure
     atomic species   magnetization
        Pt1          0.000

     12 Sym. Ops., with inversion, found ( 6 have fractional translation)

   Cartesian axes

     site n.     atom                  positions (alat units)
         1           Pt1 tau(   1) = (   1.4212846   0.8205791   6.0000000  )
         2           Pt1 tau(   2) = (   2.8425693   1.6411581   8.3209481  )
         3           Pt1 tau(   3) = (   0.0000000   0.0000000  10.6418962  )

     number of k points=    20  Fermi-Dirac smearing, width (Ry)=  0.0073
                       cart. coord. in units 2pi/alat
        k(    1) = (   0.0000000   0.0000000   0.0000000), wk =   0.0156250
        k(    2) = (   0.0000000   0.0507772   0.0000000), wk =   0.0937500
        k(    3) = (   0.0000000   0.1015543   0.0000000), wk =   0.0937500
        k(    4) = (   0.0000000   0.1523315   0.0000000), wk =   0.0937500
        k(    5) = (   0.0000000  -0.2031086   0.0000000), wk =   0.0468750
        k(    6) = (   0.0439743   0.0761657   0.0000000), wk =   0.0937500
        k(    7) = (   0.0439743   0.1269429   0.0000000), wk =   0.1875000
        k(    8) = (   0.0439743  -0.2284972   0.0000000), wk =   0.1875000
        k(    9) = (   0.0879486  -0.2538858   0.0000000), wk =   0.0937500
        k(   10) = (   0.0879486  -0.2031086   0.0000000), wk =   0.0937500
        k(   11) = (   0.0000000   0.0000000   0.0000000), wk =   0.0156250
        k(   12) = (   0.0000000   0.0507772   0.0000000), wk =   0.0937500
        k(   13) = (   0.0000000   0.1015543   0.0000000), wk =   0.0937500
        k(   14) = (   0.0000000   0.1523315   0.0000000), wk =   0.0937500
        k(   15) = (   0.0000000  -0.2031086   0.0000000), wk =   0.0468750
        k(   16) = (   0.0439743   0.0761657   0.0000000), wk =   0.0937500
        k(   17) = (   0.0439743   0.1269429   0.0000000), wk =   0.1875000
        k(   18) = (   0.0439743  -0.2284972   0.0000000), wk =   0.1875000
        k(   19) = (   0.0879486  -0.2538858   0.0000000), wk =   0.0937500
        k(   20) = (   0.0879486  -0.2031086   0.0000000), wk =   0.0937500

     Largest allocated arrays     est. size (Mb)     dimensions
     Largest temporary arrays     est. size (Mb)     dimensions

     Initial potential from superposition of free atoms
     Check: negative starting charge=(component1):   -0.282958
     Check: negative starting charge=(component2):   -0.282958

     starting charge   46.49997, renormalised to   48.00000

[...]

     *
     * You are using vdW-DF for exchange-correlation in this calculation.
     * Please cite the following three references that made this development
     * possible:
     *
     *   M. Dion, H. Rydberg, E. Schroder, D. C. Langreth, and
     *   B. I. Lundqvist, Phys. Rev. Lett. 92, 246401 (2004).
     *
     *   T. Thonhauser, V. R. Cooper, S. Li, A. Puzder, P. Hyldgaard, and
     *   D. C. Langreth, Phys. Rev. B 76, 125112 (2007).
     *
     *   G. Roman-Perez and J. M. Soler, Phys. Rev. Lett. 103, 096102 (2009).
     *
     *
     * If you are using vdW-DF2, please also cite:
     *
     *   K. Lee, E. D. Murray, L. Kong, B. I. Lundqvist, and
     *   D. C. Langreth, Phys. Rev. B 82, 081101(R) (2010).
     *
     *
     * If you are calculating the stress with vdW-DF, please also cite:
     *
     *   R. Sabatini, E. Kucukbenli, B. Kolb, T. Thonhauser, and
     *   S. de Gironcoli, J. Phys.: Condens. Matter 24, 424209 (2012).
     *

     Carrying out vdW-DF run using the following parameters:

     Nqs =      20    Nr_points =    1024   r_max =   100.000
     q_mesh =
               0.00001000     0.04494208     0.09755937     0.15916263
               0.23128650     0.31572767     0.41458969     0.53033537
               0.66584808     0.82450364     1.01025438     1.22772762
               1.48234092     1.78043706     2.12944203     2.53805004
               3.01644009     3.57652955     4.23227104     5.00000000

     Gradients computed in reciprocal space

     Starting wfc are   36 randomized atomic wfcs

     Self-consistent Calculation

[...]

     total energy              =    -637.02459045 Ry
     Harris-Foulkes estimate   =    -637.02459189 Ry
     estimated scf accuracy    <       0.00001428 Ry

[...]

     iteration # 12     ecut=    73.50 Ry     beta=0.70
     Davidson diagonalization with overlap
     ethr =  1.44E-08,  avg # of iterations =  1.0

[...]

     negative rho (up, down):  2.727E-01 2.727E-01

     Magnetic moment per site:
     atom:    1    charge:    2.0826    magn:    0.0000    constr:    0.0000
     atom:    2    charge:    2.0807    magn:    0.0000    constr:    0.0000
     atom:    3    charge:    2.0826    magn:    0.0000    constr:    0.0000

     End of self-consistent calculation

 ------ SPIN UP ------------

[...]

 ------ SPIN DOWN ----------

[...]

          k = 0.0879-0.2031 0.0000 (  8342 PWs)   bands (ev):

   -47.7627 -47.6924 -47.6747 -47.4889 -47.4733 -47.4187 -47.4122 -47.0855
   -47.0829   0.1720   0.2674   0.6067   0.8365   1.3217   1.5884   2.0775
     2.3590   2.7027   2.8287   3.3067   3.8192   4.5495   4.5808   4.8936
     9.3539   9.4170  10.6101  10.6241  12.1587  12.4438  13.6758  14.7095
    16.1354  16.1478

     the Fermi energy is     4.9450 ev

!    total energy              =    -637.02459118 Ry
     Harris-Foulkes estimate   =    -637.02459119 Ry
     estimated scf accuracy    <       0.00000002 Ry

     The total energy is the sum of the following terms:

     one-electron contribution =   -2245.67231695 Ry
     hartree contribution      =    1137.93405675 Ry
     xc contribution           =    -175.73700147 Ry
     ewald contribution        =     646.46560382 Ry
     smearing contrib. (-TS)   =      -0.01493334 Ry

     total magnetization       =     0.00 Bohr mag/cell
     absolute magnetization    =     0.00 Bohr mag/cell

     convergence has been achieved in  12 iterations

 BEEFens 2000 ensemble energies
             -0.115714232745927E+02
             -0.925939583716804E+00
             -0.330491181747253E+01
              0.883212381117852E+01
             -0.412241337578819E+01
             -0.420630004430097E+01
             -0.707039665869168E+01
             -0.177001496074398E+02
             -0.957587074725222E+01
             -0.100140982872149E+02
             -0.738267584222483E+01
             -0.522493838330060E-01
              0.587297701978603E+00
              0.154411738856960E+01
              0.697144328042015E+00
              0.926070750347266E+01
             -0.471057467239765E+01
             -0.511755467844233E+01
              0.337868619096233E+01
             -0.220883690128933E+02
              0.111591914736234E+02
             -0.545527332726778E+01
             -0.104402481607715E+01
             -0.230010676945196E+01
             -0.198239773966158E+01
             -0.187103744025028E+01
              0.175128009407065E+02
             -0.240872251616029E+01
             -0.231558845408946E+01
             -0.102411028856251E+02
              0.168478908274453E+02
             -0.421610992017153E+01
             -0.794711020404452E+01
              0.555241877132319E+01
             -0.576173169682960E+00
              0.311106771524496E+01
             -0.854929395917679E+00
              0.200708538977863E+01
              0.454159539481882E+01
             -0.212661051809846E+02
              0.106350358886410E+02
              0.233164641114244E+01
              0.259862417882246E+00
             -0.757872700142548E+01
              0.209243973237560E+01
             -0.243094276473192E+01
              0.839931789566040E+01
              0.744055786104562E+01
             -0.619321660986347E+01
             -0.584908706245665E+01
             -0.591516847094661E+01
             -0.630202774503272E+01
              0.134301702647790E+01
             -0.104244752191019E+02
              0.224836031976807E+01
              0.118723832730404E+02
              0.125264340313945E+02
              0.682327050675492E+01
              0.366820960853199E+01
              0.479162471710507E+01
[...]
             -0.138669910898103E+02
             -0.958308670897495E+00
              0.217237786044384E+00
             -0.185245506539050E+01
              0.483236613558304E+00
             -0.131344713346413E+02
             -0.481643410672669E+01
              0.951494644144582E+00
              0.864425333325059E+00
              0.918618630374899E+01
             -0.749564944233471E+01
              0.134411360565125E+02
             -0.821434380185629E+01
              0.365228562982830E+01
              0.726113743416559E+01

 BEEF-vdW xc energy contributions
           1 :   -156.280568246156
           2 :    145.398600970733
           3 :   -125.899019248494
           4 :    101.524885115559
           5 :   -76.3619769022070
           6 :    53.7774707048612
           7 :   -35.7393882583847
           8 :    22.6607721648613
           9 :   -13.7415346820326
          10 :    7.60926960474859
          11 :   -2.98116082488826
          12 :  -0.900740819442774
          13 :    4.17341779349982
          14 :   -6.55580803559388
          15 :    7.69571735345107
          16 :   -7.47918593873811
          17 :    6.16825268529004
          18 :   -4.33256993349852
          19 :    2.63201080363734
          20 :   -1.56681922646510
          21 :    1.31186556068380
          22 :   -1.70204401104462
          23 :    2.35782310259759
          24 :   -2.88034993499554
          25 :    3.02182240503245
          26 :   -2.76161770343049
          27 :    2.27001100127615
          28 :   -1.79449253792671
          29 :    1.53021553432870
          30 :   -1.53588271938355
          31 :   -12.7972777059384
          32 :   -9.44634029926527

     Forces acting on atoms (Ry/au):

     negative rho (up, down):  2.727E-01 2.727E-01
     atom    1 type  1   force =     0.00000000    0.00000000    0.00476749
     atom    2 type  1   force =     0.00000000    0.00000000    0.00000000
     atom    3 type  1   force =     0.00000000   -0.00000000   -0.00476749

     Total force =     0.006742     Total SCF correction =     0.000602
 !ASE

     Writing output data file calc.save

     General routines

     Parallel routines

   This run was terminated on:  20: 6:41  11Apr2017

   JOB DONE.