     Program PWSCF v.5.1rc2 starts on 27Feb2017 at 10: 1:36

     Current dimensions of program PWSCF are:
     Max number of different atomic species (ntypx) = 10
     Max number of k-points (npk) =  40000
     Max angular momentum in pseudopotentials (lmaxx) =  3

     IMPORTANT: XC functional enforced from input :
     Exchange-correlation      = BEEF-VDW ( 1  4 27 13 2)
     Any further DFT definition will be discarded
     Please, verify this is what you really want

     Subspace diagonalization in iterative solution of the eigenvalue problem:
     a serial algorithm will be used

     bravais-lattice index     =            0
     lattice parameter (alat)  =       1.8897  a.u.
     unit-cell volume          =     785.8726 (a.u.)^3
     number of atoms/cell      =            3
     number of atomic types    =            1
     number of electrons       =        48.00
     number of Kohn-Sham states=           34
     kinetic-energy cutoff     =      29.3995  Ry
     charge density cutoff     =     293.9946  Ry
     convergence threshold     =      7.3E-08
     mixing beta               =       0.7000
     number of iterations used =            8  plain     mixing
     Exchange-correlation      = BEEF-VDW ( 1  4 27 13 2)
     nstep                     =           50

     celldm(1)=   1.889726  celldm(2)=   0.000000  celldm(3)=   0.000000
     celldm(4)=   0.000000  celldm(5)=   0.000000  celldm(6)=   0.000000

     crystal axes: (cart. coord. in units of alat)
               a(1) = (   2.842569   0.000000   0.000000 )
               a(2) = (   1.421285   2.461737   0.000000 )
               a(3) = (   0.000000   0.000000  16.641896 )

     reciprocal axes: (cart. coord. in units 2 pi/alat)
               b(1) = (  0.351794 -0.203109  0.000000 )
               b(2) = (  0.000000  0.406217  0.000000 )
               b(3) = (  0.000000  0.000000  0.060089 )

     PseudoPot. # 1 for Pt read from file:
     /gpfs/pace1/project/chbe-medford/medford-share/data/pseudos/SSSP_eff_PBE/Pt.UPF
     MD5 check sum: f09d6de1a584b5a045c4fc126da2d0c4
     Pseudo is Ultrasoft + core correction, Zval = 16.0
     Generated by new atomic code, or converted to UPF format
     Using radial grid of  985 points,  6 beta functions with:
                l(1) =   0
                l(2) =   0
                l(3) =   1
                l(4) =   1
                l(5) =   2
                l(6) =   2
     Q(r) pseudized with  8 coefficients,  rinner =    1.300   1.300   1.300
                                                       1.300   1.300

     vdW kernel table read from file vdW_kernel_table
     MD5 check sum: 88c60d17101ec99b63477f765c8de84d

     atomic species   valence    mass     pseudopotential
        Pt1           16.00   195.08000     Pt( 1.00)

     12 Sym. Ops., with inversion, found ( 6 have fractional translation)

   Cartesian axes

     site n.     atom                  positions (alat units)
         1           Pt1 tau(   1) = (   1.4212846   0.8205791   6.0000000  )
         2           Pt1 tau(   2) = (   2.8425693   1.6411581   8.3209481  )
         3           Pt1 tau(   3) = (   0.0000000   0.0000000  10.6418962  )

     number of k points=    10  Fermi-Dirac smearing, width (Ry)=  0.0073
                       cart. coord. in units 2pi/alat
        k(    1) = (   0.0000000   0.0000000   0.0000000), wk =   0.0312500
        k(    2) = (   0.0000000   0.0507772   0.0000000), wk =   0.1875000
        k(    3) = (   0.0000000   0.1015543   0.0000000), wk =   0.1875000
        k(    4) = (   0.0000000   0.1523315   0.0000000), wk =   0.1875000
        k(    5) = (   0.0000000  -0.2031086   0.0000000), wk =   0.0937500
        k(    6) = (   0.0439743   0.0761657   0.0000000), wk =   0.1875000
        k(    7) = (   0.0439743   0.1269429   0.0000000), wk =   0.3750000
        k(    8) = (   0.0439743  -0.2284972   0.0000000), wk =   0.3750000
        k(    9) = (   0.0879486  -0.2538858   0.0000000), wk =   0.1875000
        k(   10) = (   0.0879486  -0.2031086   0.0000000), wk =   0.1875000

     Largest allocated arrays     est. size (Mb)     dimensions
     Largest temporary arrays     est. size (Mb)     dimensions

     Initial potential from superposition of free atoms
     Check: negative starting charge=   -0.565917

     starting charge   46.49997, renormalised to   48.00000

     negative rho (up, down):  5.842E-01 0.000E+00

     *
     * You are using vdW-DF for exchange-correlation in this calculation.
     * Please cite the following three references that made this development
     * possible:
     *
     *   M. Dion, H. Rydberg, E. Schroder, D. C. Langreth, and
     *   B. I. Lundqvist, Phys. Rev. Lett. 92, 246401 (2004).
     *
     *   T. Thonhauser, V. R. Cooper, S. Li, A. Puzder, P. Hyldgaard, and
     *   D. C. Langreth, Phys. Rev. B 76, 125112 (2007).
     *
     *   G. Roman-Perez and J. M. Soler, Phys. Rev. Lett. 103, 096102 (2009).
     *
     *
     * If you are using vdW-DF2, please also cite:
     *
     *   K. Lee, E. D. Murray, L. Kong, B. I. Lundqvist, and
     *   D. C. Langreth, Phys. Rev. B 82, 081101(R) (2010).
     *
     *
     * If you are calculating the stress with vdW-DF, please also cite:
     *
     *   R. Sabatini, E. Kucukbenli, B. Kolb, T. Thonhauser, and
     *   S. de Gironcoli, J. Phys.: Condens. Matter 24, 424209 (2012).
     *

     Carrying out vdW-DF run using the following parameters:

     Nqs =      20    Nr_points =    1024   r_max =   100.000
     q_mesh =
               0.00001000     0.04494208     0.09755937     0.15916263
               0.23128650     0.31572767     0.41458969     0.53033537
               0.66584808     0.82450364     1.01025438     1.22772762
               1.48234092     1.78043706     2.12944203     2.53805004
               3.01644009     3.57652955     4.23227104     5.00000000

     Gradients computed in reciprocal space

     Starting wfc are   36 randomized atomic wfcs

     Self-consistent Calculation

     iteration #  1     ecut=    29.40 Ry     beta=0.70
     Davidson diagonalization with overlap
     ethr =  1.00E-02,  avg # of iterations =  6.0

[...]

     total energy              =    -634.38449556 Ry
     Harris-Foulkes estimate   =    -637.84169618 Ry
     estimated scf accuracy    <       4.45278422 Ry

[...]

     total energy              =    -637.00342983 Ry
     Harris-Foulkes estimate   =    -637.00343074 Ry
     estimated scf accuracy    <       0.00000851 Ry

     iteration # 12     ecut=    29.40 Ry     beta=0.70
     Davidson diagonalization with overlap
     ethr =  1.77E-08,  avg # of iterations =  1.0

[...]

     negative rho (up, down):  5.462E-01 0.000E+00

     End of self-consistent calculation

          k = 0.0000 0.0000 0.0000 (  2131 PWs)   bands (ev):

   -47.7221 -47.5496 -47.5496 -47.2819 -47.2819 -47.2805 -47.2805 -47.1318
   -47.1049  -3.3164  -1.6798  -1.1950   1.7678   1.8663   1.8663   2.1156
     2.1156   2.1597   2.3081   2.3081   3.6698   3.6698   4.2507   4.2507
     4.3946   4.8918   4.8918   6.0157   9.7518  10.6702  11.9295  14.9896
    15.1198  19.2733

[...]

          k = 0.0879-0.2031 0.0000 (  2090 PWs)   bands (ev):

   -47.7718 -47.7014 -47.6838 -47.4979 -47.4822 -47.4276 -47.4211 -47.0925
   -47.0899   0.1710   0.2657   0.6058   0.8356   1.3209   1.5882   2.0776
     2.3590   2.7036   2.8291   3.3085   3.8213   4.5537   4.5836   4.8984
     9.3545   9.4171  10.6105  10.6258  12.1611  12.4440  13.6777  14.7095
    16.1377  16.1473

     the Fermi energy is     4.9481 ev

!    total energy              =    -637.00343026 Ry
     Harris-Foulkes estimate   =    -637.00343028 Ry
     estimated scf accuracy    <          9.8E-09 Ry

     The total energy is the sum of the following terms:

     one-electron contribution =   -2245.62455394 Ry
     hartree contribution      =    1137.90052609 Ry
     xc contribution           =    -175.73007045 Ry
     ewald contribution        =     646.46560382 Ry
     smearing contrib. (-TS)   =      -0.01493579 Ry

     convergence has been achieved in  12 iterations

 BEEFens 2000 ensemble energies
             -0.115656989319811E+02
             -0.922828484790791E+00
             -0.329908525571728E+01
              0.882168076010525E+01
             -0.411900314878545E+01
             -0.419360427367339E+01
             -0.708168143139565E+01
             -0.176980199012192E+02
             -0.957556128945286E+01
             -0.100262901770159E+02
             -0.736496048026552E+01
             -0.657951956392284E-01
              0.583406375975933E+00
              0.152233290211427E+01
              0.702868450306546E+00
              0.927218122133419E+01
             -0.471272247437039E+01
             -0.512251033793326E+01
              0.338603041248521E+01
             -0.220846390192762E+02
              0.111422561698858E+02
             -0.546214992508970E+01
             -0.105345219046881E+01
             -0.230521727716993E+01
             -0.197924721350569E+01
             -0.190506713195916E+01
              0.175211149275286E+02
             -0.242546538289028E+01
             -0.232521337529926E+01
             -0.102454873194766E+02
              0.168570890692021E+02
             -0.420959168037825E+01
             -0.795735890629518E+01
              0.555145965622527E+01
             -0.582033498213718E+00
              0.309863921876514E+01
             -0.868330641276799E+00
              0.200911813565747E+01
              0.451643967106206E+01
             -0.212826656345353E+02
              0.106390886380202E+02
              0.233708130277840E+01
              0.239287053761231E+00
             -0.757300961156313E+01
              0.210696967934309E+01
             -0.242041588622803E+01
              0.840616655303359E+01
              0.744435293016596E+01
             -0.620113914851441E+01
             -0.585741261115328E+01
             -0.590860262410175E+01
             -0.631382536174565E+01
              0.133104686664020E+01
             -0.104271927752957E+02
              0.224971802033588E+01
              0.118572948131331E+02
              0.125185569208789E+02
              0.681153419625214E+01
              0.368491118060718E+01
              0.478789564506671E+01
[...]
             -0.138625374755655E+02
             -0.957305574327791E+00
              0.222445226269740E+00
             -0.185792696361064E+01
              0.480847877683175E+00
             -0.131475302230845E+02
             -0.482939642237235E+01
              0.942497458565873E+00
              0.850410385380997E+00
              0.918525617744824E+01
             -0.750765212907743E+01
              0.134458821985824E+02
             -0.822260945196154E+01
              0.365579041519692E+01
              0.727647163245800E+01

 BEEF-vdW xc energy contributions
           1 :   -156.275628824980
           2 :    145.394778955706
           3 :   -125.898861537206
           4 :    101.529855192353
           5 :   -76.3664525348212
           6 :    53.7647511792876
           7 :   -35.6855347740805
           8 :    22.5484108974175
           9 :   -13.5776695371566
          10 :    7.43632518096697
          11 :   -2.87087671777607
          12 :  -0.872482581433530
          13 :    3.96221101781452
          14 :   -6.17932279802938
          15 :    7.24482979550311
          16 :   -7.09777287022774
          17 :    6.00079959511157
          18 :   -4.45819249308272
          19 :    3.01936504282546
          20 :   -2.07844464661900
          21 :    1.76048912202424
          22 :   -1.93191662601112
          23 :    2.31195903226833
          24 :   -2.62162707606407
          25 :    2.69896302820723
          26 :   -2.53701683443961
          27 :    2.24374999210573
          28 :   -1.96007013943398
          29 :    1.78336477675202
          30 :   -1.73084116338592
          31 :   -12.7970334800653
          32 :   -9.44661028956153

     Forces acting on atoms (Ry/au):

     negative rho (up, down):  5.462E-01 0.000E+00
     atom    1 type  1   force =     0.00000000    0.00000000    0.00536480
     atom    2 type  1   force =     0.00000000    0.00000000    0.00000000
     atom    3 type  1   force =     0.00000000    0.00000000   -0.00536480

     Total force =     0.007587     Total SCF correction =     0.000441
 !ASE

     Writing output data file calc.save

     General routines

     Parallel routines

   This run was terminated on:  10: 2:52  27Feb2017

   JOB DONE.